p cnf 798 2694
1 0
2 0
3 0
4 0
5 0
6 0
7 0
8 0
9 0
10 0
-11 0
-12 0
-13 0
-14 0
-15 0
-16 0
-17 0
-18 0
-19 0
-20 0
-1 21 -22 0
1 -21 -22 0
-1 -21 22 0
1 21 22 0
-23 -22 0
1 -24 -25 0
-1 24 -25 0
25 -1 -24 0
25 1 24 0
-26 25 0
-27 28 0
-21 28 0
27 21 -28 0
1 -28 -29 0
-1 28 -29 0
-1 -28 29 0
1 28 29 0
-30 29 0
21 31 0
27 31 0
-21 -27 -31 0
-1 31 -32 0
1 -31 -32 0
32 -31 -1 0
1 31 32 0
-33 -32 0
-27 24 -34 0
27 -24 -34 0
-24 -27 34 0
27 24 34 0
-23 -34 0
27 -35 -36 0
-27 35 -36 0
36 -27 -35 0
36 27 35 0
-26 36 0
-37 38 0
-24 38 0
37 24 -38 0
27 -38 -39 0
-27 38 -39 0
-27 -38 39 0
27 38 39 0
-30 39 0
24 40 0
37 40 0
-24 -37 -40 0
-27 40 -41 0
27 -40 -41 0
41 -40 -27 0
27 40 41 0
-33 -41 0
-37 35 -42 0
37 -35 -42 0
-37 -35 42 0
37 35 42 0
-23 -42 0
37 -43 -44 0
-37 43 -44 0
44 -37 -43 0
44 37 43 0
-26 44 0
-45 46 0
-35 46 0
45 35 -46 0
37 -46 -47 0
-37 46 -47 0
-37 -46 47 0
37 46 47 0
-30 47 0
45 48 0
35 48 0
-45 -35 -48 0
-37 48 -49 0
37 -48 -49 0
49 -48 -37 0
37 48 49 0
-33 -49 0
-45 43 -50 0
45 -43 -50 0
-45 -43 50 0
45 43 50 0
-23 -50 0
45 -51 -52 0
-45 51 -52 0
52 -45 -51 0
52 45 51 0
-26 52 0
-53 54 0
-43 54 0
53 43 -54 0
45 -54 -55 0
-45 54 -55 0
-45 -54 55 0
45 54 55 0
-30 55 0
53 56 0
43 56 0
-53 -43 -56 0
-45 56 -57 0
45 -56 -57 0
57 -56 -45 0
45 56 57 0
-33 -57 0
-53 51 -58 0
53 -51 -58 0
-53 -51 58 0
53 51 58 0
-23 -58 0
53 -59 -60 0
-53 59 -60 0
60 -53 -59 0
60 53 59 0
-26 60 0
-61 62 0
-51 62 0
61 51 -62 0
53 -62 -63 0
-53 62 -63 0
-53 -62 63 0
53 62 63 0
-30 63 0
61 64 0
51 64 0
-61 -51 -64 0
-53 64 -65 0
53 -64 -65 0
65 -64 -53 0
53 64 65 0
-33 -65 0
-61 59 -66 0
61 -59 -66 0
-61 -59 66 0
61 59 66 0
-23 -66 0
61 -67 -68 0
-61 67 -68 0
68 -61 -67 0
68 61 67 0
-26 68 0
-69 70 0
-59 70 0
69 59 -70 0
61 -70 -71 0
-61 70 -71 0
-61 -70 71 0
61 70 71 0
-30 71 0
69 72 0
59 72 0
-69 -59 -72 0
-61 72 -73 0
61 -72 -73 0
73 -72 -61 0
61 72 73 0
-33 -73 0
-69 67 -74 0
69 -67 -74 0
-69 -67 74 0
69 67 74 0
-23 -74 0
69 -75 -76 0
-69 75 -76 0
76 -69 -75 0
76 69 75 0
-26 76 0
-77 78 0
-67 78 0
77 67 -78 0
69 -78 -79 0
-69 78 -79 0
-69 -78 79 0
69 78 79 0
-30 79 0
77 80 0
67 80 0
-77 -67 -80 0
-69 80 -81 0
69 -80 -81 0
81 -80 -69 0
69 80 81 0
-33 -81 0
-77 75 -82 0
77 -75 -82 0
-77 -75 82 0
77 75 82 0
-23 -82 0
77 -83 -84 0
-77 83 -84 0
84 -77 -83 0
84 77 83 0
-26 84 0
-85 86 0
-75 86 0
85 75 -86 0
77 -86 -87 0
-77 86 -87 0
-77 -86 87 0
77 86 87 0
-30 87 0
85 88 0
75 88 0
-85 -75 -88 0
-77 88 -89 0
77 -88 -89 0
89 -88 -77 0
77 88 89 0
-33 -89 0
-85 83 -90 0
85 -83 -90 0
-85 -83 90 0
85 83 90 0
-23 -90 0
85 -91 -92 0
-85 91 -92 0
92 -85 -91 0
92 85 91 0
-26 92 0
-93 94 0
-83 94 0
93 83 -94 0
85 -94 -95 0
-85 94 -95 0
-85 -94 95 0
85 94 95 0
-30 95 0
93 96 0
83 96 0
-93 -83 -96 0
-85 96 -97 0
85 -96 -97 0
97 -96 -85 0
85 96 97 0
-33 -97 0
-93 91 -98 0
93 -91 -98 0
-93 -91 98 0
93 91 98 0
-23 -98 0
93 -99 -100 0
-93 99 -100 0
100 -93 -99 0
100 93 99 0
-26 100 0
-101 102 0
-91 102 0
101 91 -102 0
93 -102 -103 0
-93 102 -103 0
-93 -102 103 0
93 102 103 0
-30 103 0
101 104 0
91 104 0
-101 -91 -104 0
-93 104 -105 0
93 -104 -105 0
105 -104 -93 0
93 104 105 0
-33 -105 0
-101 99 -106 0
101 -99 -106 0
-101 -99 106 0
101 99 106 0
-23 -106 0
101 -59 -107 0
-101 59 -107 0
107 -101 -59 0
107 101 59 0
-26 107 0
-59 108 0
-67 108 0
-75 108 0
-83 108 0
-91 108 0
-99 108 0
109 0
101 -108 -110 0
-101 108 -110 0
-101 -108 110 0
101 108 110 0
-30 110 0
59 111 0
67 111 0
75 111 0
83 111 0
91 111 0
99 111 0
-112 0
-101 111 -113 0
101 -111 -113 0
113 -111 -101 0
101 111 113 0
-33 -113 0
-2 114 -115 0
2 -114 -115 0
-2 -114 115 0
2 114 115 0
-23 -115 0
2 -116 -117 0
-2 116 -117 0
117 -2 -116 0
117 2 116 0
-26 117 0
-118 119 0
-114 119 0
118 114 -119 0
2 -119 -120 0
-2 119 -120 0
-2 -119 120 0
2 119 120 0
-30 120 0
118 121 0
114 121 0
-118 -114 -121 0
-2 121 -122 0
2 -121 -122 0
122 -121 -2 0
2 121 122 0
-33 -122 0
-118 116 -123 0
118 -116 -123 0
-118 -116 123 0
118 116 123 0
-23 -123 0
118 -124 -125 0
-118 124 -125 0
125 -118 -124 0
125 118 124 0
-26 125 0
-126 127 0
-116 127 0
126 116 -127 0
118 -127 -128 0
-118 127 -128 0
-118 -127 128 0
118 127 128 0
-30 128 0
126 129 0
116 129 0
-126 -116 -129 0
-118 129 -130 0
118 -129 -130 0
130 -129 -118 0
118 129 130 0
-33 -130 0
-126 124 -131 0
126 -124 -131 0
-126 -124 131 0
126 124 131 0
-23 -131 0
126 -132 -133 0
-126 132 -133 0
133 -126 -132 0
133 126 132 0
-26 133 0
-134 135 0
-124 135 0
134 124 -135 0
126 -135 -136 0
-126 135 -136 0
-126 -135 136 0
126 135 136 0
-30 136 0
134 137 0
124 137 0
-134 -124 -137 0
-126 137 -138 0
126 -137 -138 0
138 -137 -126 0
126 137 138 0
-33 -138 0
-134 132 -139 0
134 -132 -139 0
-134 -132 139 0
134 132 139 0
-23 -139 0
134 -140 -141 0
-134 140 -141 0
141 -134 -140 0
141 134 140 0
-26 141 0
-142 143 0
-132 143 0
142 132 -143 0
134 -143 -144 0
-134 143 -144 0
-134 -143 144 0
134 143 144 0
-30 144 0
142 145 0
132 145 0
-142 -132 -145 0
-134 145 -146 0
134 -145 -146 0
146 -145 -134 0
134 145 146 0
-33 -146 0
-142 140 -147 0
142 -140 -147 0
-142 -140 147 0
142 140 147 0
-23 -147 0
142 -148 -149 0
-142 148 -149 0
149 -142 -148 0
149 142 148 0
-26 149 0
-150 151 0
-140 151 0
150 140 -151 0
142 -151 -152 0
-142 151 -152 0
-142 -151 152 0
142 151 152 0
-30 152 0
150 153 0
140 153 0
-150 -140 -153 0
-142 153 -154 0
142 -153 -154 0
154 -153 -142 0
142 153 154 0
-33 -154 0
-150 148 -155 0
150 -148 -155 0
-150 -148 155 0
150 148 155 0
-23 -155 0
150 -156 -157 0
-150 156 -157 0
157 -150 -156 0
157 150 156 0
-26 157 0
-158 159 0
-148 159 0
158 148 -159 0
150 -159 -160 0
-150 159 -160 0
-150 -159 160 0
150 159 160 0
-30 160 0
158 161 0
148 161 0
-158 -148 -161 0
-150 161 -162 0
150 -161 -162 0
162 -161 -150 0
150 161 162 0
-33 -162 0
-158 156 -163 0
158 -156 -163 0
-158 -156 163 0
158 156 163 0
-23 -163 0
158 -164 -165 0
-158 164 -165 0
165 -158 -164 0
165 158 164 0
-26 165 0
-166 167 0
-156 167 0
166 156 -167 0
158 -167 -168 0
-158 167 -168 0
-158 -167 168 0
158 167 168 0
-30 168 0
166 169 0
156 169 0
-166 -156 -169 0
-158 169 -170 0
158 -169 -170 0
170 -169 -158 0
158 169 170 0
-33 -170 0
-166 164 -171 0
166 -164 -171 0
-166 -164 171 0
166 164 171 0
-23 -171 0
166 -132 -172 0
-166 132 -172 0
172 -166 -132 0
172 166 132 0
-26 172 0
-132 173 0
-140 173 0
-148 173 0
-156 173 0
-164 173 0
132 140 148 156 164 -173 0
166 -173 -174 0
-166 173 -174 0
-166 -173 174 0
166 173 174 0
-30 174 0
132 175 0
140 175 0
148 175 0
156 175 0
164 175 0
-176 0
-166 175 -177 0
166 -175 -177 0
177 -175 -166 0
166 175 177 0
-33 -177 0
-3 178 -179 0
3 -178 -179 0
-3 -178 179 0
3 178 179 0
-23 -179 0
3 -180 -181 0
-3 180 -181 0
181 -3 -180 0
181 3 180 0
-26 181 0
-182 183 0
-178 183 0
182 178 -183 0
3 -183 -184 0
-3 183 -184 0
-3 -183 184 0
3 183 184 0
-30 184 0
182 185 0
178 185 0
-182 -178 -185 0
-3 185 -186 0
3 -185 -186 0
186 -185 -3 0
3 185 186 0
-33 -186 0
-182 180 -187 0
182 -180 -187 0
-182 -180 187 0
182 180 187 0
-23 -187 0
182 -188 -189 0
-182 188 -189 0
189 -182 -188 0
189 182 188 0
-26 189 0
-190 191 0
-180 191 0
190 180 -191 0
182 -191 -192 0
-182 191 -192 0
-182 -191 192 0
182 191 192 0
-30 192 0
190 193 0
180 193 0
-190 -180 -193 0
-182 193 -194 0
182 -193 -194 0
194 -193 -182 0
182 193 194 0
-33 -194 0
-190 188 -195 0
190 -188 -195 0
-190 -188 195 0
190 188 195 0
-23 -195 0
190 -196 -197 0
-190 196 -197 0
197 -190 -196 0
197 190 196 0
-26 197 0
-198 199 0
-188 199 0
198 188 -199 0
190 -199 -200 0
-190 199 -200 0
-190 -199 200 0
190 199 200 0
-30 200 0
198 201 0
188 201 0
-198 -188 -201 0
-190 201 -202 0
190 -201 -202 0
202 -201 -190 0
190 201 202 0
-33 -202 0
-198 196 -203 0
198 -196 -203 0
-198 -196 203 0
198 196 203 0
-23 -203 0
198 -204 -205 0
-198 204 -205 0
205 -198 -204 0
205 198 204 0
-26 205 0
-206 207 0
-196 207 0
206 196 -207 0
198 -207 -208 0
-198 207 -208 0
-198 -207 208 0
198 207 208 0
-30 208 0
206 209 0
196 209 0
-206 -196 -209 0
-198 209 -210 0
198 -209 -210 0
210 -209 -198 0
198 209 210 0
-33 -210 0
-206 204 -211 0
206 -204 -211 0
-206 -204 211 0
206 204 211 0
-23 -211 0
206 -212 -213 0
-206 212 -213 0
213 -206 -212 0
213 206 212 0
-26 213 0
-214 215 0
-204 215 0
214 204 -215 0
206 -215 -216 0
-206 215 -216 0
-206 -215 216 0
206 215 216 0
-30 216 0
214 217 0
204 217 0
-214 -204 -217 0
-206 217 -218 0
206 -217 -218 0
218 -217 -206 0
206 217 218 0
-33 -218 0
-214 212 -219 0
214 -212 -219 0
-214 -212 219 0
214 212 219 0
-23 -219 0
214 -220 -221 0
-214 220 -221 0
221 -214 -220 0
221 214 220 0
-26 221 0
-222 223 0
-212 223 0
222 212 -223 0
214 -223 -224 0
-214 223 -224 0
-214 -223 224 0
214 223 224 0
-30 224 0
222 225 0
212 225 0
-222 -212 -225 0
-214 225 -226 0
214 -225 -226 0
226 -225 -214 0
214 225 226 0
-33 -226 0
-222 220 -227 0
222 -220 -227 0
-222 -220 227 0
222 220 227 0
-23 -227 0
222 -228 -229 0
-222 228 -229 0
229 -222 -228 0
229 222 228 0
-26 229 0
-230 231 0
-220 231 0
230 220 -231 0
222 -231 -232 0
-222 231 -232 0
-222 -231 232 0
222 231 232 0
-30 232 0
230 233 0
220 233 0
-230 -220 -233 0
-222 233 -234 0
222 -233 -234 0
234 -233 -222 0
222 233 234 0
-33 -234 0
-230 228 -235 0
230 -228 -235 0
-230 -228 235 0
230 228 235 0
-23 -235 0
230 -236 -237 0
-230 236 -237 0
237 -230 -236 0
237 230 236 0
-26 237 0
-238 239 0
-228 239 0
238 228 -239 0
230 -239 -240 0
-230 239 -240 0
-230 -239 240 0
230 239 240 0
-30 240 0
238 241 0
228 241 0
-238 -228 -241 0
-230 241 -242 0
230 -241 -242 0
242 -241 -230 0
230 241 242 0
-33 -242 0
-238 236 -243 0
238 -236 -243 0
-238 -236 243 0
238 236 243 0
-23 -243 0
238 -244 -245 0
-238 244 -245 0
245 -238 -244 0
245 238 244 0
-26 245 0
-246 247 0
-236 247 0
246 236 -247 0
238 -247 -248 0
-238 247 -248 0
-238 -247 248 0
238 247 248 0
-30 248 0
246 249 0
236 249 0
-246 -236 -249 0
-238 249 -250 0
238 -249 -250 0
250 -249 -238 0
238 249 250 0
-33 -250 0
-246 244 -251 0
246 -244 -251 0
-246 -244 251 0
246 244 251 0
-23 -251 0
246 -252 -253 0
-246 252 -253 0
253 -246 -252 0
253 246 252 0
-26 253 0
-254 255 0
-244 255 0
254 244 -255 0
246 -255 -256 0
-246 255 -256 0
-246 -255 256 0
246 255 256 0
-30 256 0
254 257 0
244 257 0
-254 -244 -257 0
-246 257 -258 0
246 -257 -258 0
258 -257 -246 0
246 257 258 0
-33 -258 0
-254 252 -259 0
254 -252 -259 0
-254 -252 259 0
254 252 259 0
-23 -259 0
254 -212 -260 0
-254 212 -260 0
260 -254 -212 0
260 254 212 0
-26 260 0
-212 261 0
-220 261 0
-228 261 0
-236 261 0
-244 261 0
-252 261 0
262 0
254 -261 -263 0
-254 261 -263 0
-254 -261 263 0
254 261 263 0
-30 263 0
212 264 0
220 264 0
228 264 0
236 264 0
244 264 0
252 264 0
-265 0
-254 264 -266 0
254 -264 -266 0
266 -264 -254 0
254 264 266 0
-33 -266 0
-4 267 -268 0
4 -267 -268 0
-4 -267 268 0
4 267 268 0
-23 -268 0
4 -269 -270 0
-4 269 -270 0
270 -4 -269 0
270 4 269 0
-26 270 0
-271 272 0
-267 272 0
271 267 -272 0
4 -272 -273 0
-4 272 -273 0
-4 -272 273 0
4 272 273 0
-30 273 0
271 274 0
267 274 0
-271 -267 -274 0
-4 274 -275 0
4 -274 -275 0
275 -274 -4 0
4 274 275 0
-33 -275 0
-271 269 -276 0
271 -269 -276 0
-271 -269 276 0
271 269 276 0
-23 -276 0
271 -277 -278 0
-271 277 -278 0
278 -271 -277 0
278 271 277 0
-26 278 0
-279 280 0
-269 280 0
279 269 -280 0
271 -280 -281 0
-271 280 -281 0
-271 -280 281 0
271 280 281 0
-30 281 0
279 282 0
269 282 0
-279 -269 -282 0
-271 282 -283 0
271 -282 -283 0
283 -282 -271 0
271 282 283 0
-33 -283 0
-279 277 -284 0
279 -277 -284 0
-279 -277 284 0
279 277 284 0
-23 -284 0
279 -285 -286 0
-279 285 -286 0
286 -279 -285 0
286 279 285 0
-26 286 0
-287 288 0
-277 288 0
287 277 -288 0
279 -288 -289 0
-279 288 -289 0
-279 -288 289 0
279 288 289 0
-30 289 0
287 290 0
277 290 0
-287 -277 -290 0
-279 290 -291 0
279 -290 -291 0
291 -290 -279 0
279 290 291 0
-33 -291 0
-287 285 -292 0
287 -285 -292 0
-287 -285 292 0
287 285 292 0
-23 -292 0
287 -293 -294 0
-287 293 -294 0
294 -287 -293 0
294 287 293 0
-26 294 0
-295 296 0
-285 296 0
295 285 -296 0
287 -296 -297 0
-287 296 -297 0
-287 -296 297 0
287 296 297 0
-30 297 0
295 298 0
285 298 0
-295 -285 -298 0
-287 298 -299 0
287 -298 -299 0
299 -298 -287 0
287 298 299 0
-33 -299 0
-295 293 -300 0
295 -293 -300 0
-295 -293 300 0
295 293 300 0
-23 -300 0
295 -301 -302 0
-295 301 -302 0
302 -295 -301 0
302 295 301 0
-26 302 0
-303 304 0
-293 304 0
303 293 -304 0
295 -304 -305 0
-295 304 -305 0
-295 -304 305 0
295 304 305 0
-30 305 0
303 306 0
293 306 0
-303 -293 -306 0
-295 306 -307 0
295 -306 -307 0
307 -306 -295 0
295 306 307 0
-33 -307 0
-303 301 -308 0
303 -301 -308 0
-303 -301 308 0
303 301 308 0
-23 -308 0
303 -309 -310 0
-303 309 -310 0
310 -303 -309 0
310 303 309 0
-26 310 0
-311 312 0
-301 312 0
311 301 -312 0
303 -312 -313 0
-303 312 -313 0
-303 -312 313 0
303 312 313 0
-30 313 0
311 314 0
301 314 0
-311 -301 -314 0
-303 314 -315 0
303 -314 -315 0
315 -314 -303 0
303 314 315 0
-33 -315 0
-311 309 -316 0
311 -309 -316 0
-311 -309 316 0
311 309 316 0
-23 -316 0
311 -317 -318 0
-311 317 -318 0
318 -311 -317 0
318 311 317 0
-26 318 0
-319 320 0
-309 320 0
319 309 -320 0
311 -320 -321 0
-311 320 -321 0
-311 -320 321 0
311 320 321 0
-30 321 0
319 322 0
309 322 0
-319 -309 -322 0
-311 322 -323 0
311 -322 -323 0
323 -322 -311 0
311 322 323 0
-33 -323 0
-319 317 -324 0
319 -317 -324 0
-319 -317 324 0
319 317 324 0
-23 -324 0
319 -325 -326 0
-319 325 -326 0
326 -319 -325 0
326 319 325 0
-26 326 0
-327 328 0
-317 328 0
327 317 -328 0
319 -328 -329 0
-319 328 -329 0
-319 -328 329 0
319 328 329 0
-30 329 0
327 330 0
317 330 0
-327 -317 -330 0
-319 330 -331 0
319 -330 -331 0
331 -330 -319 0
319 330 331 0
-33 -331 0
-327 325 -332 0
327 -325 -332 0
-327 -325 332 0
327 325 332 0
-23 -332 0
327 -333 -334 0
-327 333 -334 0
334 -327 -333 0
334 327 333 0
-26 334 0
-335 336 0
-325 336 0
335 325 -336 0
327 -336 -337 0
-327 336 -337 0
-327 -336 337 0
327 336 337 0
-30 337 0
335 338 0
325 338 0
-335 -325 -338 0
-327 338 -339 0
327 -338 -339 0
339 -338 -327 0
327 338 339 0
-33 -339 0
-335 333 -340 0
335 -333 -340 0
-335 -333 340 0
335 333 340 0
-23 -340 0
335 -341 -342 0
-335 341 -342 0
342 -335 -341 0
342 335 341 0
-26 342 0
-343 344 0
-333 344 0
343 333 -344 0
335 -344 -345 0
-335 344 -345 0
-335 -344 345 0
335 344 345 0
-30 345 0
343 346 0
333 346 0
-343 -333 -346 0
-335 346 -347 0
335 -346 -347 0
347 -346 -335 0
335 346 347 0
-33 -347 0
-343 341 -348 0
343 -341 -348 0
-343 -341 348 0
343 341 348 0
-23 -348 0
343 -301 -349 0
-343 301 -349 0
349 -343 -301 0
349 343 301 0
-26 349 0
-301 350 0
-309 350 0
-317 350 0
-325 350 0
-333 350 0
-341 350 0
351 0
343 -350 -352 0
-343 350 -352 0
-343 -350 352 0
343 350 352 0
-30 352 0
301 353 0
309 353 0
317 353 0
325 353 0
333 353 0
341 353 0
-354 0
-343 353 -355 0
343 -353 -355 0
355 -353 -343 0
343 353 355 0
-33 -355 0
-5 356 -357 0
5 -356 -357 0
-5 -356 357 0
5 356 357 0
-23 -357 0
5 -358 -359 0
-5 358 -359 0
359 -5 -358 0
359 5 358 0
-26 359 0
-360 361 0
-356 361 0
360 356 -361 0
5 -361 -362 0
-5 361 -362 0
-5 -361 362 0
5 361 362 0
-30 362 0
360 363 0
356 363 0
-360 -356 -363 0
-5 363 -364 0
5 -363 -364 0
364 -363 -5 0
5 363 364 0
-33 -364 0
-360 358 -365 0
360 -358 -365 0
-360 -358 365 0
360 358 365 0
-23 -365 0
360 -366 -367 0
-360 366 -367 0
367 -360 -366 0
367 360 366 0
-26 367 0
-368 369 0
-358 369 0
368 358 -369 0
360 -369 -370 0
-360 369 -370 0
-360 -369 370 0
360 369 370 0
-30 370 0
368 371 0
358 371 0
-368 -358 -371 0
-360 371 -372 0
360 -371 -372 0
372 -371 -360 0
360 371 372 0
-33 -372 0
-368 366 -373 0
368 -366 -373 0
-368 -366 373 0
368 366 373 0
-23 -373 0
368 -374 -375 0
-368 374 -375 0
375 -368 -374 0
375 368 374 0
-26 375 0
-376 377 0
-366 377 0
376 366 -377 0
368 -377 -378 0
-368 377 -378 0
-368 -377 378 0
368 377 378 0
-30 378 0
376 379 0
366 379 0
-376 -366 -379 0
-368 379 -380 0
368 -379 -380 0
380 -379 -368 0
368 379 380 0
-33 -380 0
-376 374 -381 0
376 -374 -381 0
-376 -374 381 0
376 374 381 0
-23 -381 0
376 -382 -383 0
-376 382 -383 0
383 -376 -382 0
383 376 382 0
-26 383 0
-384 385 0
-374 385 0
384 374 -385 0
376 -385 -386 0
-376 385 -386 0
-376 -385 386 0
376 385 386 0
-30 386 0
384 387 0
374 387 0
-384 -374 -387 0
-376 387 -388 0
376 -387 -388 0
388 -387 -376 0
376 387 388 0
-33 -388 0
-384 382 -389 0
384 -382 -389 0
-384 -382 389 0
384 382 389 0
-23 -389 0
384 -390 -391 0
-384 390 -391 0
391 -384 -390 0
391 384 390 0
-26 391 0
-392 393 0
-382 393 0
392 382 -393 0
384 -393 -394 0
-384 393 -394 0
-384 -393 394 0
384 393 394 0
-30 394 0
392 395 0
382 395 0
-392 -382 -395 0
-384 395 -396 0
384 -395 -396 0
396 -395 -384 0
384 395 396 0
-33 -396 0
-392 390 -397 0
392 -390 -397 0
-392 -390 397 0
392 390 397 0
-23 -397 0
392 -398 -399 0
-392 398 -399 0
399 -392 -398 0
399 392 398 0
-26 399 0
-400 401 0
-390 401 0
400 390 -401 0
392 -401 -402 0
-392 401 -402 0
-392 -401 402 0
392 401 402 0
-30 402 0
400 403 0
390 403 0
-400 -390 -403 0
-392 403 -404 0
392 -403 -404 0
404 -403 -392 0
392 403 404 0
-33 -404 0
-400 398 -405 0
400 -398 -405 0
-400 -398 405 0
400 398 405 0
-23 -405 0
400 -406 -407 0
-400 406 -407 0
407 -400 -406 0
407 400 406 0
-26 407 0
-408 409 0
-398 409 0
408 398 -409 0
400 -409 -410 0
-400 409 -410 0
-400 -409 410 0
400 409 410 0
-30 410 0
408 411 0
398 411 0
-408 -398 -411 0
-400 411 -412 0
400 -411 -412 0
412 -411 -400 0
400 411 412 0
-33 -412 0
-408 406 -413 0
408 -406 -413 0
-408 -406 413 0
408 406 413 0
-23 -413 0
408 -414 -415 0
-408 414 -415 0
415 -408 -414 0
415 408 414 0
-26 415 0
-416 417 0
-406 417 0
416 406 -417 0
408 -417 -418 0
-408 417 -418 0
-408 -417 418 0
408 417 418 0
-30 418 0
416 419 0
406 419 0
-416 -406 -419 0
-408 419 -420 0
408 -419 -420 0
420 -419 -408 0
408 419 420 0
-33 -420 0
-416 414 -421 0
416 -414 -421 0
-416 -414 421 0
416 414 421 0
-23 -421 0
416 -382 -422 0
-416 382 -422 0
422 -416 -382 0
422 416 382 0
-26 422 0
-382 423 0
-390 423 0
-398 423 0
-406 423 0
-414 423 0
382 390 398 406 414 -423 0
416 -423 -424 0
-416 423 -424 0
-416 -423 424 0
416 423 424 0
-30 424 0
382 425 0
390 425 0
398 425 0
406 425 0
414 425 0
-426 0
-416 425 -427 0
416 -425 -427 0
427 -425 -416 0
416 425 427 0
-33 -427 0
-6 428 -429 0
6 -428 -429 0
-6 -428 429 0
6 428 429 0
-23 -429 0
6 -430 -431 0
-6 430 -431 0
431 -6 -430 0
431 6 430 0
-26 431 0
-432 433 0
-428 433 0
432 428 -433 0
6 -433 -434 0
-6 433 -434 0
-6 -433 434 0
6 433 434 0
-30 434 0
432 435 0
428 435 0
-432 -428 -435 0
-6 435 -436 0
6 -435 -436 0
436 -435 -6 0
6 435 436 0
-33 -436 0
-432 430 -437 0
432 -430 -437 0
-432 -430 437 0
432 430 437 0
-23 -437 0
432 -438 -439 0
-432 438 -439 0
439 -432 -438 0
439 432 438 0
-26 439 0
-440 441 0
-430 441 0
440 430 -441 0
432 -441 -442 0
-432 441 -442 0
-432 -441 442 0
432 441 442 0
-30 442 0
440 443 0
430 443 0
-440 -430 -443 0
-432 443 -444 0
432 -443 -444 0
444 -443 -432 0
432 443 444 0
-33 -444 0
-440 438 -445 0
440 -438 -445 0
-440 -438 445 0
440 438 445 0
-23 -445 0
440 -446 -447 0
-440 446 -447 0
447 -440 -446 0
447 440 446 0
-26 447 0
-448 449 0
-438 449 0
448 438 -449 0
440 -449 -450 0
-440 449 -450 0
-440 -449 450 0
440 449 450 0
-30 450 0
448 451 0
438 451 0
-448 -438 -451 0
-440 451 -452 0
440 -451 -452 0
452 -451 -440 0
440 451 452 0
-33 -452 0
-448 446 -453 0
448 -446 -453 0
-448 -446 453 0
448 446 453 0
-23 -453 0
448 -446 -454 0
-448 446 -454 0
454 -448 -446 0
454 448 446 0
-26 454 0
-30 454 0
-33 454 0
-7 455 -456 0
7 -455 -456 0
-7 -455 456 0
7 455 456 0
-23 -456 0
7 -457 -458 0
-7 457 -458 0
458 -7 -457 0
458 7 457 0
-26 458 0
-459 460 0
-455 460 0
459 455 -460 0
7 -460 -461 0
-7 460 -461 0
-7 -460 461 0
7 460 461 0
-30 461 0
459 462 0
455 462 0
-459 -455 -462 0
-7 462 -463 0
7 -462 -463 0
463 -462 -7 0
7 462 463 0
-33 -463 0
-459 457 -464 0
459 -457 -464 0
-459 -457 464 0
459 457 464 0
-23 -464 0
459 -465 -466 0
-459 465 -466 0
466 -459 -465 0
466 459 465 0
-26 466 0
-467 468 0
-457 468 0
467 457 -468 0
459 -468 -469 0
-459 468 -469 0
-459 -468 469 0
459 468 469 0
-30 469 0
467 470 0
457 470 0
-467 -457 -470 0
-459 470 -471 0
459 -470 -471 0
471 -470 -459 0
459 470 471 0
-33 -471 0
-467 465 -472 0
467 -465 -472 0
-467 -465 472 0
467 465 472 0
-23 -472 0
467 -473 -474 0
-467 473 -474 0
474 -467 -473 0
474 467 473 0
-26 474 0
-475 476 0
-465 476 0
475 465 -476 0
467 -476 -477 0
-467 476 -477 0
-467 -476 477 0
467 476 477 0
-30 477 0
475 478 0
465 478 0
-475 -465 -478 0
-467 478 -479 0
467 -478 -479 0
479 -478 -467 0
467 478 479 0
-33 -479 0
-475 473 -480 0
475 -473 -480 0
-475 -473 480 0
475 473 480 0
-23 -480 0
475 -481 -482 0
-475 481 -482 0
482 -475 -481 0
482 475 481 0
-26 482 0
-483 484 0
-473 484 0
483 473 -484 0
475 -484 -485 0
-475 484 -485 0
-475 -484 485 0
475 484 485 0
-30 485 0
483 486 0
473 486 0
-483 -473 -486 0
-475 486 -487 0
475 -486 -487 0
487 -486 -475 0
475 486 487 0
-33 -487 0
-483 481 -488 0
483 -481 -488 0
-483 -481 488 0
483 481 488 0
-23 -488 0
483 -489 -490 0
-483 489 -490 0
490 -483 -489 0
490 483 489 0
-26 490 0
-491 492 0
-481 492 0
491 481 -492 0
483 -492 -493 0
-483 492 -493 0
-483 -492 493 0
483 492 493 0
-30 493 0
491 494 0
481 494 0
-491 -481 -494 0
-483 494 -495 0
483 -494 -495 0
495 -494 -483 0
483 494 495 0
-33 -495 0
-491 489 -496 0
491 -489 -496 0
-491 -489 496 0
491 489 496 0
-23 -496 0
491 -497 -498 0
-491 497 -498 0
498 -491 -497 0
498 491 497 0
-26 498 0
-499 500 0
-489 500 0
499 489 -500 0
491 -500 -501 0
-491 500 -501 0
-491 -500 501 0
491 500 501 0
-30 501 0
499 502 0
489 502 0
-499 -489 -502 0
-491 502 -503 0
491 -502 -503 0
503 -502 -491 0
491 502 503 0
-33 -503 0
-499 497 -504 0
499 -497 -504 0
-499 -497 504 0
499 497 504 0
-23 -504 0
499 -505 -506 0
-499 505 -506 0
506 -499 -505 0
506 499 505 0
-26 506 0
-507 508 0
-497 508 0
507 497 -508 0
499 -508 -509 0
-499 508 -509 0
-499 -508 509 0
499 508 509 0
-30 509 0
507 510 0
497 510 0
-507 -497 -510 0
-499 510 -511 0
499 -510 -511 0
511 -510 -499 0
499 510 511 0
-33 -511 0
-507 505 -512 0
507 -505 -512 0
-507 -505 512 0
507 505 512 0
-23 -512 0
507 -513 -514 0
-507 513 -514 0
514 -507 -513 0
514 507 513 0
-26 514 0
-515 516 0
-505 516 0
515 505 -516 0
507 -516 -517 0
-507 516 -517 0
-507 -516 517 0
507 516 517 0
-30 517 0
515 518 0
505 518 0
-515 -505 -518 0
-507 518 -519 0
507 -518 -519 0
519 -518 -507 0
507 518 519 0
-33 -519 0
-515 513 -520 0
515 -513 -520 0
-515 -513 520 0
515 513 520 0
-23 -520 0
515 -481 -521 0
-515 481 -521 0
521 -515 -481 0
521 515 481 0
-26 521 0
-481 522 0
-489 522 0
-497 522 0
-505 522 0
-513 522 0
481 489 497 505 513 -522 0
515 -522 -523 0
-515 522 -523 0
-515 -522 523 0
515 522 523 0
-30 523 0
481 524 0
489 524 0
497 524 0
505 524 0
513 524 0
-525 0
-515 524 -526 0
515 -524 -526 0
526 -524 -515 0
515 524 526 0
-33 -526 0
-8 527 -528 0
8 -527 -528 0
-8 -527 528 0
8 527 528 0
-23 -528 0
8 -529 -530 0
-8 529 -530 0
530 -8 -529 0
530 8 529 0
-26 530 0
-531 532 0
-527 532 0
531 527 -532 0
8 -532 -533 0
-8 532 -533 0
-8 -532 533 0
8 532 533 0
-30 533 0
531 534 0
527 534 0
-531 -527 -534 0
-8 534 -535 0
8 -534 -535 0
535 -534 -8 0
8 534 535 0
-33 -535 0
-531 529 -536 0
531 -529 -536 0
-531 -529 536 0
531 529 536 0
-23 -536 0
531 -537 -538 0
-531 537 -538 0
538 -531 -537 0
538 531 537 0
-26 538 0
-539 540 0
-529 540 0
539 529 -540 0
531 -540 -541 0
-531 540 -541 0
-531 -540 541 0
531 540 541 0
-30 541 0
539 542 0
529 542 0
-539 -529 -542 0
-531 542 -543 0
531 -542 -543 0
543 -542 -531 0
531 542 543 0
-33 -543 0
-539 537 -544 0
539 -537 -544 0
-539 -537 544 0
539 537 544 0
-23 -544 0
539 -545 -546 0
-539 545 -546 0
546 -539 -545 0
546 539 545 0
-26 546 0
-547 548 0
-537 548 0
547 537 -548 0
539 -548 -549 0
-539 548 -549 0
-539 -548 549 0
539 548 549 0
-30 549 0
547 550 0
537 550 0
-547 -537 -550 0
-539 550 -551 0
539 -550 -551 0
551 -550 -539 0
539 550 551 0
-33 -551 0
-547 545 -552 0
547 -545 -552 0
-547 -545 552 0
547 545 552 0
-23 -552 0
547 -553 -554 0
-547 553 -554 0
554 -547 -553 0
554 547 553 0
-26 554 0
-555 556 0
-545 556 0
555 545 -556 0
547 -556 -557 0
-547 556 -557 0
-547 -556 557 0
547 556 557 0
-30 557 0
555 558 0
545 558 0
-555 -545 -558 0
-547 558 -559 0
547 -558 -559 0
559 -558 -547 0
547 558 559 0
-33 -559 0
-555 553 -560 0
555 -553 -560 0
-555 -553 560 0
555 553 560 0
-23 -560 0
555 -561 -562 0
-555 561 -562 0
562 -555 -561 0
562 555 561 0
-26 562 0
-563 564 0
-553 564 0
563 553 -564 0
555 -564 -565 0
-555 564 -565 0
-555 -564 565 0
555 564 565 0
-30 565 0
563 566 0
553 566 0
-563 -553 -566 0
-555 566 -567 0
555 -566 -567 0
567 -566 -555 0
555 566 567 0
-33 -567 0
-563 561 -568 0
563 -561 -568 0
-563 -561 568 0
563 561 568 0
-23 -568 0
563 -569 -570 0
-563 569 -570 0
570 -563 -569 0
570 563 569 0
-26 570 0
-571 572 0
-561 572 0
571 561 -572 0
563 -572 -573 0
-563 572 -573 0
-563 -572 573 0
563 572 573 0
-30 573 0
571 574 0
561 574 0
-571 -561 -574 0
-563 574 -575 0
563 -574 -575 0
575 -574 -563 0
563 574 575 0
-33 -575 0
-571 569 -576 0
571 -569 -576 0
-571 -569 576 0
571 569 576 0
-23 -576 0
571 -577 -578 0
-571 577 -578 0
578 -571 -577 0
578 571 577 0
-26 578 0
-579 580 0
-569 580 0
579 569 -580 0
571 -580 -581 0
-571 580 -581 0
-571 -580 581 0
571 580 581 0
-30 581 0
579 582 0
569 582 0
-579 -569 -582 0
-571 582 -583 0
571 -582 -583 0
583 -582 -571 0
571 582 583 0
-33 -583 0
-579 577 -584 0
579 -577 -584 0
-579 -577 584 0
579 577 584 0
-23 -584 0
579 -585 -586 0
-579 585 -586 0
586 -579 -585 0
586 579 585 0
-26 586 0
-587 588 0
-577 588 0
587 577 -588 0
579 -588 -589 0
-579 588 -589 0
-579 -588 589 0
579 588 589 0
-30 589 0
587 590 0
577 590 0
-587 -577 -590 0
-579 590 -591 0
579 -590 -591 0
591 -590 -579 0
579 590 591 0
-33 -591 0
-587 585 -592 0
587 -585 -592 0
-587 -585 592 0
587 585 592 0
-23 -592 0
587 -593 -594 0
-587 593 -594 0
594 -587 -593 0
594 587 593 0
-26 594 0
-595 596 0
-585 596 0
595 585 -596 0
587 -596 -597 0
-587 596 -597 0
-587 -596 597 0
587 596 597 0
-30 597 0
595 598 0
585 598 0
-595 -585 -598 0
-587 598 -599 0
587 -598 -599 0
599 -598 -587 0
587 598 599 0
-33 -599 0
-595 593 -600 0
595 -593 -600 0
-595 -593 600 0
595 593 600 0
-23 -600 0
595 -569 -601 0
-595 569 -601 0
601 -595 -569 0
601 595 569 0
-26 601 0
-569 602 0
-577 602 0
-585 602 0
-593 602 0
569 577 585 593 -602 0
595 -602 -603 0
-595 602 -603 0
-595 -602 603 0
595 602 603 0
-30 603 0
569 604 0
577 604 0
585 604 0
593 604 0
-605 0
-595 604 -606 0
595 -604 -606 0
606 -604 -595 0
595 604 606 0
-33 -606 0
-9 607 -608 0
9 -607 -608 0
-9 -607 608 0
9 607 608 0
-23 -608 0
9 -609 -610 0
-9 609 -610 0
610 -9 -609 0
610 9 609 0
-26 610 0
-611 612 0
-607 612 0
611 607 -612 0
9 -612 -613 0
-9 612 -613 0
-9 -612 613 0
9 612 613 0
-30 613 0
611 614 0
607 614 0
-611 -607 -614 0
-9 614 -615 0
9 -614 -615 0
615 -614 -9 0
9 614 615 0
-33 -615 0
-611 609 -616 0
611 -609 -616 0
-611 -609 616 0
611 609 616 0
-23 -616 0
611 -617 -618 0
-611 617 -618 0
618 -611 -617 0
618 611 617 0
-26 618 0
-619 620 0
-609 620 0
619 609 -620 0
611 -620 -621 0
-611 620 -621 0
-611 -620 621 0
611 620 621 0
-30 621 0
619 622 0
609 622 0
-619 -609 -622 0
-611 622 -623 0
611 -622 -623 0
623 -622 -611 0
611 622 623 0
-33 -623 0
-619 617 -624 0
619 -617 -624 0
-619 -617 624 0
619 617 624 0
-23 -624 0
619 -625 -626 0
-619 625 -626 0
626 -619 -625 0
626 619 625 0
-26 626 0
-627 628 0
-617 628 0
627 617 -628 0
619 -628 -629 0
-619 628 -629 0
-619 -628 629 0
619 628 629 0
-30 629 0
627 630 0
617 630 0
-627 -617 -630 0
-619 630 -631 0
619 -630 -631 0
631 -630 -619 0
619 630 631 0
-33 -631 0
-627 625 -632 0
627 -625 -632 0
-627 -625 632 0
627 625 632 0
-23 -632 0
627 -633 -634 0
-627 633 -634 0
634 -627 -633 0
634 627 633 0
-26 634 0
-635 636 0
-625 636 0
635 625 -636 0
627 -636 -637 0
-627 636 -637 0
-627 -636 637 0
627 636 637 0
-30 637 0
635 638 0
625 638 0
-635 -625 -638 0
-627 638 -639 0
627 -638 -639 0
639 -638 -627 0
627 638 639 0
-33 -639 0
-635 633 -640 0
635 -633 -640 0
-635 -633 640 0
635 633 640 0
-23 -640 0
635 -641 -642 0
-635 641 -642 0
642 -635 -641 0
642 635 641 0
-26 642 0
-643 644 0
-633 644 0
643 633 -644 0
635 -644 -645 0
-635 644 -645 0
-635 -644 645 0
635 644 645 0
-30 645 0
643 646 0
633 646 0
-643 -633 -646 0
-635 646 -647 0
635 -646 -647 0
647 -646 -635 0
635 646 647 0
-33 -647 0
-643 641 -648 0
643 -641 -648 0
-643 -641 648 0
643 641 648 0
-23 -648 0
643 -649 -650 0
-643 649 -650 0
650 -643 -649 0
650 643 649 0
-26 650 0
-651 652 0
-641 652 0
651 641 -652 0
643 -652 -653 0
-643 652 -653 0
-643 -652 653 0
643 652 653 0
-30 653 0
651 654 0
641 654 0
-651 -641 -654 0
-643 654 -655 0
643 -654 -655 0
655 -654 -643 0
643 654 655 0
-33 -655 0
-651 649 -656 0
651 -649 -656 0
-651 -649 656 0
651 649 656 0
-23 -656 0
651 -657 -658 0
-651 657 -658 0
658 -651 -657 0
658 651 657 0
-26 658 0
-659 660 0
-649 660 0
659 649 -660 0
651 -660 -661 0
-651 660 -661 0
-651 -660 661 0
651 660 661 0
-30 661 0
659 662 0
649 662 0
-659 -649 -662 0
-651 662 -663 0
651 -662 -663 0
663 -662 -651 0
651 662 663 0
-33 -663 0
-659 657 -664 0
659 -657 -664 0
-659 -657 664 0
659 657 664 0
-23 -664 0
659 -665 -666 0
-659 665 -666 0
666 -659 -665 0
666 659 665 0
-26 666 0
-667 668 0
-657 668 0
667 657 -668 0
659 -668 -669 0
-659 668 -669 0
-659 -668 669 0
659 668 669 0
-30 669 0
667 670 0
657 670 0
-667 -657 -670 0
-659 670 -671 0
659 -670 -671 0
671 -670 -659 0
659 670 671 0
-33 -671 0
-667 665 -672 0
667 -665 -672 0
-667 -665 672 0
667 665 672 0
-23 -672 0
667 -673 -674 0
-667 673 -674 0
674 -667 -673 0
674 667 673 0
-26 674 0
-675 676 0
-665 676 0
675 665 -676 0
667 -676 -677 0
-667 676 -677 0
-667 -676 677 0
667 676 677 0
-30 677 0
675 678 0
665 678 0
-675 -665 -678 0
-667 678 -679 0
667 -678 -679 0
679 -678 -667 0
667 678 679 0
-33 -679 0
-675 673 -680 0
675 -673 -680 0
-675 -673 680 0
675 673 680 0
-23 -680 0
675 -681 -682 0
-675 681 -682 0
682 -675 -681 0
682 675 681 0
-26 682 0
-683 684 0
-673 684 0
683 673 -684 0
675 -684 -685 0
-675 684 -685 0
-675 -684 685 0
675 684 685 0
-30 685 0
683 686 0
673 686 0
-683 -673 -686 0
-675 686 -687 0
675 -686 -687 0
687 -686 -675 0
675 686 687 0
-33 -687 0
-683 681 -688 0
683 -681 -688 0
-683 -681 688 0
683 681 688 0
-23 -688 0
683 -641 -689 0
-683 641 -689 0
689 -683 -641 0
689 683 641 0
-26 689 0
-641 690 0
-649 690 0
-657 690 0
-665 690 0
-673 690 0
-681 690 0
691 0
683 -690 -692 0
-683 690 -692 0
-683 -690 692 0
683 690 692 0
-30 692 0
641 693 0
649 693 0
657 693 0
665 693 0
673 693 0
681 693 0
-694 0
-683 693 -695 0
683 -693 -695 0
695 -693 -683 0
683 693 695 0
-33 -695 0
-10 696 -697 0
10 -696 -697 0
-10 -696 697 0
10 696 697 0
-23 -697 0
10 -698 -699 0
-10 698 -699 0
699 -10 -698 0
699 10 698 0
-26 699 0
-700 701 0
-696 701 0
700 696 -701 0
10 -701 -702 0
-10 701 -702 0
-10 -701 702 0
10 701 702 0
-30 702 0
700 703 0
696 703 0
-700 -696 -703 0
-10 703 -704 0
10 -703 -704 0
704 -703 -10 0
10 703 704 0
-33 -704 0
-700 698 -705 0
700 -698 -705 0
-700 -698 705 0
700 698 705 0
-23 -705 0
700 -706 -707 0
-700 706 -707 0
707 -700 -706 0
707 700 706 0
-26 707 0
-708 709 0
-698 709 0
708 698 -709 0
700 -709 -710 0
-700 709 -710 0
-700 -709 710 0
700 709 710 0
-30 710 0
708 711 0
698 711 0
-708 -698 -711 0
-700 711 -712 0
700 -711 -712 0
712 -711 -700 0
700 711 712 0
-33 -712 0
-708 706 -713 0
708 -706 -713 0
-708 -706 713 0
708 706 713 0
-23 -713 0
708 -714 -715 0
-708 714 -715 0
715 -708 -714 0
715 708 714 0
-26 715 0
-716 717 0
-706 717 0
716 706 -717 0
708 -717 -718 0
-708 717 -718 0
-708 -717 718 0
708 717 718 0
-30 718 0
716 719 0
706 719 0
-716 -706 -719 0
-708 719 -720 0
708 -719 -720 0
720 -719 -708 0
708 719 720 0
-33 -720 0
-716 714 -721 0
716 -714 -721 0
-716 -714 721 0
716 714 721 0
-23 -721 0
716 -722 -723 0
-716 722 -723 0
723 -716 -722 0
723 716 722 0
-26 723 0
-724 725 0
-714 725 0
724 714 -725 0
716 -725 -726 0
-716 725 -726 0
-716 -725 726 0
716 725 726 0
-30 726 0
724 727 0
714 727 0
-724 -714 -727 0
-716 727 -728 0
716 -727 -728 0
728 -727 -716 0
716 727 728 0
-33 -728 0
-724 722 -729 0
724 -722 -729 0
-724 -722 729 0
724 722 729 0
-23 -729 0
724 -730 -731 0
-724 730 -731 0
731 -724 -730 0
731 724 730 0
-26 731 0
-732 733 0
-722 733 0
732 722 -733 0
724 -733 -734 0
-724 733 -734 0
-724 -733 734 0
724 733 734 0
-30 734 0
732 735 0
722 735 0
-732 -722 -735 0
-724 735 -736 0
724 -735 -736 0
736 -735 -724 0
724 735 736 0
-33 -736 0
-732 730 -737 0
732 -730 -737 0
-732 -730 737 0
732 730 737 0
-23 -737 0
732 -738 -739 0
-732 738 -739 0
739 -732 -738 0
739 732 738 0
-26 739 0
-740 741 0
-730 741 0
740 730 -741 0
732 -741 -742 0
-732 741 -742 0
-732 -741 742 0
732 741 742 0
-30 742 0
740 743 0
730 743 0
-740 -730 -743 0
-732 743 -744 0
732 -743 -744 0
744 -743 -732 0
732 743 744 0
-33 -744 0
-740 738 -745 0
740 -738 -745 0
-740 -738 745 0
740 738 745 0
-23 -745 0
740 -746 -747 0
-740 746 -747 0
747 -740 -746 0
747 740 746 0
-26 747 0
-748 749 0
-738 749 0
748 738 -749 0
740 -749 -750 0
-740 749 -750 0
-740 -749 750 0
740 749 750 0
-30 750 0
748 751 0
738 751 0
-748 -738 -751 0
-740 751 -752 0
740 -751 -752 0
752 -751 -740 0
740 751 752 0
-33 -752 0
-748 746 -753 0
748 -746 -753 0
-748 -746 753 0
748 746 753 0
-23 -753 0
748 -722 -754 0
-748 722 -754 0
754 -748 -722 0
754 748 722 0
-26 754 0
-722 755 0
-730 755 0
-738 755 0
-746 755 0
722 730 738 746 -755 0
748 -755 -756 0
-748 755 -756 0
-748 -755 756 0
748 755 756 0
-30 756 0
722 757 0
730 757 0
738 757 0
746 757 0
-758 0
-748 757 -759 0
748 -757 -759 0
759 -757 -748 0
748 757 759 0
-33 -759 0
-11 760 -761 0
11 -760 -761 0
-11 -760 761 0
11 760 761 0
-23 -761 0
11 -760 -762 0
-11 760 -762 0
762 -11 -760 0
762 11 760 0
-26 762 0
-30 762 0
-33 762 0
-12 763 -764 0
12 -763 -764 0
-12 -763 764 0
12 763 764 0
-23 -764 0
12 -763 -765 0
-12 763 -765 0
765 -12 -763 0
765 12 763 0
-26 765 0
-30 765 0
-33 765 0
-13 766 -767 0
13 -766 -767 0
-13 -766 767 0
13 766 767 0
-23 -767 0
13 -766 -768 0
-13 766 -768 0
768 -13 -766 0
768 13 766 0
-26 768 0
-30 768 0
-33 768 0
-14 769 -770 0
14 -769 -770 0
-14 -769 770 0
14 769 770 0
-23 -770 0
14 -769 -771 0
-14 769 -771 0
771 -14 -769 0
771 14 769 0
-26 771 0
-30 771 0
-33 771 0
-15 772 -773 0
15 -772 -773 0
-15 -772 773 0
15 772 773 0
-23 -773 0
15 -772 -774 0
-15 772 -774 0
774 -15 -772 0
774 15 772 0
-26 774 0
-30 774 0
-33 774 0
-16 775 -776 0
16 -775 -776 0
-16 -775 776 0
16 775 776 0
-23 -776 0
16 -775 -777 0
-16 775 -777 0
777 -16 -775 0
777 16 775 0
-26 777 0
-30 777 0
-33 777 0
-17 778 -779 0
17 -778 -779 0
-17 -778 779 0
17 778 779 0
-23 -779 0
17 -778 -780 0
-17 778 -780 0
780 -17 -778 0
780 17 778 0
-26 780 0
-30 780 0
-33 780 0
-18 781 -782 0
18 -781 -782 0
-18 -781 782 0
18 781 782 0
-23 -782 0
18 -781 -783 0
-18 781 -783 0
783 -18 -781 0
783 18 781 0
-26 783 0
-30 783 0
-33 783 0
-19 784 -785 0
19 -784 -785 0
-19 -784 785 0
19 784 785 0
-23 -785 0
19 -784 -786 0
-19 784 -786 0
786 -19 -784 0
786 19 784 0
-26 786 0
-30 786 0
-33 786 0
-20 787 -788 0
20 -787 -788 0
-20 -787 788 0
20 787 788 0
-23 -788 0
20 -787 -789 0
-20 787 -789 0
789 -20 -787 0
789 20 787 0
-26 789 0
-30 789 0
-33 789 0
23 26 30 33 0
-23 -26 0
-23 -30 0
-23 -33 0
-26 -30 0
-26 -33 0
-30 -33 0
21 -790 0
-790 -24 0
-790 -35 0
-790 -43 0
51 -790 0
59 -790 0
67 -790 0
75 -790 0
83 -790 0
-790 -91 0
-790 -99 0
-790 -114 0
-790 -116 0
124 -790 0
-790 -132 0
140 -790 0
148 -790 0
-790 -156 0
-790 -164 0
178 -790 0
-790 -180 0
188 -790 0
196 -790 0
204 -790 0
212 -790 0
-790 -220 0
-790 -228 0
-790 -236 0
244 -790 0
-790 -252 0
267 -790 0
269 -790 0
277 -790 0
-790 -285 0
293 -790 0
301 -790 0
-790 -309 0
-790 -317 0
-790 -325 0
333 -790 0
-790 -341 0
356 -790 0
358 -790 0
-790 -366 0
374 -790 0
-790 -382 0
-790 -390 0
398 -790 0
406 -790 0
-790 -414 0
-790 -428 0
430 -790 0
438 -790 0
-790 -446 0
455 -790 0
-790 -457 0
465 -790 0
-790 -473 0
-790 -481 0
-790 -489 0
-790 -497 0
505 -790 0
513 -790 0
-790 -527 0
-790 -529 0
-790 -537 0
545 -790 0
-790 -553 0
-790 -561 0
569 -790 0
-790 -577 0
585 -790 0
593 -790 0
607 -790 0
609 -790 0
-790 -617 0
-790 -625 0
-790 -633 0
641 -790 0
-790 -649 0
-790 -657 0
-790 -665 0
673 -790 0
681 -790 0
696 -790 0
-790 -698 0
-790 -706 0
714 -790 0
722 -790 0
730 -790 0
738 -790 0
-790 -746 0
-790 -760 0
-790 -763 0
-790 -766 0
-790 -769 0
-790 -772 0
-790 -775 0
-790 -778 0
-790 -781 0
-790 -784 0
-790 -787 0
790 0
-791 0
-792 0
-793 0
-794 0
-795 0
-796 0
-797 0
-798 0
